solution status: optimal solution found
objective value:                                    0
$_134_y                                            19 	(obj:0)
$_134_z                                            17 	(obj:0)
$_201_y                                            21 	(obj:0)
$_201_z                                            22 	(obj:0)
$_37_y                                             24 	(obj:0)
$_37_z                                             17 	(obj:0)
$_158_y                                            25 	(obj:0)
$_158_z                                            24 	(obj:0)
$_20_y                                             -8 	(obj:0)
$_20_z                                             25 	(obj:0)
$_21_y                                             25 	(obj:0)
$_21_z                                             17 	(obj:0)
$_19_y                                             24 	(obj:0)
$_19_z                                             23 	(obj:0)
$_78_y                                             19 	(obj:0)
$_78_z                                             21 	(obj:0)
$_61_y                                             17 	(obj:0)
$_61_z                                             15 	(obj:0)
$_113_y                                            25 	(obj:0)
$_113_z                                            21 	(obj:0)
$_240_y                                            23 	(obj:0)
$_240_z                                            21 	(obj:0)
$_39_y                                             25 	(obj:0)
$_39_z                                             19 	(obj:0)
$_243_y                                            20 	(obj:0)
$_243_z                                            21 	(obj:0)
$_79_y                                             21 	(obj:0)
$_79_z                                             21 	(obj:0)
$_59_y                                             17 	(obj:0)
$_59_z                                             20 	(obj:0)
$_199_y                                            21 	(obj:0)
$_199_z                                            23 	(obj:0)
$_202_y                                            22 	(obj:0)
$_202_z                                            21 	(obj:0)
$_18_y                                             25 	(obj:0)
$_18_z                                              9 	(obj:0)
$_127_y                                            24 	(obj:0)
$_127_z                                            25 	(obj:0)
$_60_y                                             19 	(obj:0)
$_60_z                                             12 	(obj:0)
$_161_y                                            25 	(obj:0)
$_161_z                                            22 	(obj:0)
$_280_y                                            20 	(obj:0)
$_280_z                                            20 	(obj:0)
$_120_y                                            25 	(obj:0)
$_120_z                                            20 	(obj:0)
$_76_y                                             19 	(obj:0)
$_76_z                                             20 	(obj:0)
$_77_y                                             24 	(obj:0)
$_77_z                                             22 	(obj:0)
$_160_y                                            25 	(obj:0)
$_160_z                                            25 	(obj:0)
$_242_y                                            24 	(obj:0)
$_242_z                                            21 	(obj:0)
$_38_y                                             19 	(obj:0)
$_38_z                                              9 	(obj:0)
